p cnf 36 292
1 2 3 4 5 6 7 8 9 0
-1 -2 0
-1 -3 0
-1 -4 0
-1 -5 0
-1 -6 0
-1 -7 0
-1 -8 0
-1 -9 0
-2 -3 0
-2 -4 0
-2 -5 0
-2 -6 0
-2 -7 0
-2 -8 0
-2 -9 0
-3 -4 0
-3 -5 0
-3 -6 0
-3 -7 0
-3 -8 0
-3 -9 0
-4 -5 0
-4 -6 0
-4 -7 0
-4 -8 0
-4 -9 0
-5 -6 0
-5 -7 0
-5 -8 0
-5 -9 0
-6 -7 0
-6 -8 0
-6 -9 0
-7 -8 0
-7 -9 0
-8 -9 0
10 11 12 13 14 15 16 17 18 0
-10 -11 0
-10 -12 0
-10 -13 0
-10 -14 0
-10 -15 0
-10 -16 0
-10 -17 0
-10 -18 0
-11 -12 0
-11 -13 0
-11 -14 0
-11 -15 0
-11 -16 0
-11 -17 0
-11 -18 0
-12 -13 0
-12 -14 0
-12 -15 0
-12 -16 0
-12 -17 0
-12 -18 0
-13 -14 0
-13 -15 0
-13 -16 0
-13 -17 0
-13 -18 0
-14 -15 0
-14 -16 0
-14 -17 0
-14 -18 0
-15 -16 0
-15 -17 0
-15 -18 0
-16 -17 0
-16 -18 0
-17 -18 0
19 20 21 22 23 24 25 26 27 0
-19 -20 0
-19 -21 0
-19 -22 0
-19 -23 0
-19 -24 0
-19 -25 0
-19 -26 0
-19 -27 0
-20 -21 0
-20 -22 0
-20 -23 0
-20 -24 0
-20 -25 0
-20 -26 0
-20 -27 0
-21 -22 0
-21 -23 0
-21 -24 0
-21 -25 0
-21 -26 0
-21 -27 0
-22 -23 0
-22 -24 0
-22 -25 0
-22 -26 0
-22 -27 0
-23 -24 0
-23 -25 0
-23 -26 0
-23 -27 0
-24 -25 0
-24 -26 0
-24 -27 0
-25 -26 0
-25 -27 0
-26 -27 0
28 29 30 31 32 33 34 35 36 0
-28 -29 0
-28 -30 0
-28 -31 0
-28 -32 0
-28 -33 0
-28 -34 0
-28 -35 0
-28 -36 0
-29 -30 0
-29 -31 0
-29 -32 0
-29 -33 0
-29 -34 0
-29 -35 0
-29 -36 0
-30 -31 0
-30 -32 0
-30 -33 0
-30 -34 0
-30 -35 0
-30 -36 0
-31 -32 0
-31 -33 0
-31 -34 0
-31 -35 0
-31 -36 0
-32 -33 0
-32 -34 0
-32 -35 0
-32 -36 0
-33 -34 0
-33 -35 0
-33 -36 0
-34 -35 0
-34 -36 0
-35 -36 0
-1 -10 0
-1 -19 0
-1 -28 0
-10 -19 0
-10 -28 0
-19 -28 0
-2 -11 0
-2 -20 0
-2 -29 0
-11 -20 0
-11 -29 0
-20 -29 0
-3 -12 0
-3 -21 0
-3 -30 0
-12 -21 0
-12 -30 0
-21 -30 0
-4 -13 0
-4 -22 0
-4 -31 0
-13 -22 0
-13 -31 0
-22 -31 0
-5 -14 0
-5 -23 0
-5 -32 0
-14 -23 0
-14 -32 0
-23 -32 0
-6 -15 0
-6 -24 0
-6 -33 0
-15 -24 0
-15 -33 0
-24 -33 0
-7 -16 0
-7 -25 0
-7 -34 0
-16 -25 0
-16 -34 0
-25 -34 0
-8 -17 0
-8 -26 0
-8 -35 0
-17 -26 0
-17 -35 0
-26 -35 0
-9 -18 0
-9 -27 0
-9 -36 0
-18 -27 0
-18 -36 0
-27 -36 0
-1 -11 0
-10 -2 0
-1 -20 0
-19 -2 0
-1 -29 0
-28 -2 0
-10 -20 0
-19 -11 0
-10 -29 0
-28 -11 0
-19 -29 0
-28 -20 0
-1 -13 0
-10 -4 0
-1 -22 0
-19 -4 0
-1 -31 0
-28 -4 0
-10 -22 0
-19 -13 0
-10 -31 0
-28 -13 0
-19 -31 0
-28 -22 0
-1 -14 0
-10 -5 0
-1 -23 0
-19 -5 0
-1 -32 0
-28 -5 0
-10 -23 0
-19 -14 0
-10 -32 0
-28 -14 0
-19 -32 0
-28 -23 0
-1 -16 0
-10 -7 0
-1 -25 0
-19 -7 0
-1 -34 0
-28 -7 0
-10 -25 0
-19 -16 0
-10 -34 0
-28 -16 0
-19 -34 0
-28 -25 0
-2 -13 0
-11 -4 0
-2 -22 0
-20 -4 0
-2 -31 0
-29 -4 0
-11 -22 0
-20 -13 0
-11 -31 0
-29 -13 0
-20 -31 0
-29 -22 0
-2 -15 0
-11 -6 0
-2 -24 0
-20 -6 0
-2 -33 0
-29 -6 0
-11 -24 0
-20 -15 0
-11 -33 0
-29 -15 0
-20 -33 0
-29 -24 0
-2 -16 0
-11 -7 0
-2 -25 0
-20 -7 0
-2 -34 0
-29 -7 0
-11 -25 0
-20 -16 0
-11 -34 0
-29 -16 0
-20 -34 0
-29 -25 0
-3 -13 0
-12 -4 0
-3 -22 0
-21 -4 0
-3 -31 0
-30 -4 0
-12 -22 0
-21 -13 0
-12 -31 0
-30 -13 0
-21 -31 0
-30 -22 0
-3 -18 0
-12 -9 0
-3 -27 0
-21 -9 0
-3 -36 0
-30 -9 0
-12 -27 0
-21 -18 0
-12 -36 0
-30 -18 0
-21 -36 0
-30 -27 0
-5 -15 0
-14 -6 0
-5 -24 0
-23 -6 0
-5 -33 0
-32 -6 0
-14 -24 0
-23 -15 0
-14 -33 0
-32 -15 0
-23 -33 0
-32 -24 0
-5 -18 0
-14 -9 0
-5 -27 0
-23 -9 0
-5 -36 0
-32 -9 0
-14 -27 0
-23 -18 0
-14 -36 0
-32 -18 0
-23 -36 0
-32 -27 0
-7 -18 0
-16 -9 0
-7 -27 0
-25 -9 0
-7 -36 0
-34 -9 0
-16 -27 0
-25 -18 0
-16 -36 0
-34 -18 0
-25 -36 0
-34 -27 0
